c *********************************
c * Circuit generated by BenCGen
c *
c * RippleCarryAdder_126_126_126_InOutT
c *
c * Ports with 1 gate(s): 1
c * Ports with 2 gate(s): 631
c * Total gates: 632
c *********************************
p cnf 884 2147
1 381 0
-1 -381 0
1 -380 0
381 -380 0
-1 -381 380 0
1 127 -383 0
-1 127 383 0
1 -127 383 0
-1 -127 -383 0
383 380 -253 0
-383 380 253 0
383 -380 253 0
-383 -380 -253 0
380 -384 0
383 -384 0
-380 -383 384 0
127 -385 0
1 -385 0
-127 -1 385 0
-384 382 0
-385 382 0
384 385 -382 0
2 128 -387 0
-2 128 387 0
2 -128 387 0
-2 -128 -387 0
387 382 -254 0
-387 382 254 0
387 -382 254 0
-387 -382 -254 0
382 -388 0
387 -388 0
-382 -387 388 0
128 -389 0
2 -389 0
-128 -2 389 0
-388 386 0
-389 386 0
388 389 -386 0
3 129 -391 0
-3 129 391 0
3 -129 391 0
-3 -129 -391 0
391 386 -255 0
-391 386 255 0
391 -386 255 0
-391 -386 -255 0
386 -392 0
391 -392 0
-386 -391 392 0
129 -393 0
3 -393 0
-129 -3 393 0
-392 390 0
-393 390 0
392 393 -390 0
4 130 -395 0
-4 130 395 0
4 -130 395 0
-4 -130 -395 0
395 390 -256 0
-395 390 256 0
395 -390 256 0
-395 -390 -256 0
390 -396 0
395 -396 0
-390 -395 396 0
130 -397 0
4 -397 0
-130 -4 397 0
-396 394 0
-397 394 0
396 397 -394 0
5 131 -399 0
-5 131 399 0
5 -131 399 0
-5 -131 -399 0
399 394 -257 0
-399 394 257 0
399 -394 257 0
-399 -394 -257 0
394 -400 0
399 -400 0
-394 -399 400 0
131 -401 0
5 -401 0
-131 -5 401 0
-400 398 0
-401 398 0
400 401 -398 0
6 132 -403 0
-6 132 403 0
6 -132 403 0
-6 -132 -403 0
403 398 -258 0
-403 398 258 0
403 -398 258 0
-403 -398 -258 0
398 -404 0
403 -404 0
-398 -403 404 0
132 -405 0
6 -405 0
-132 -6 405 0
-404 402 0
-405 402 0
404 405 -402 0
7 133 -407 0
-7 133 407 0
7 -133 407 0
-7 -133 -407 0
407 402 -259 0
-407 402 259 0
407 -402 259 0
-407 -402 -259 0
402 -408 0
407 -408 0
-402 -407 408 0
133 -409 0
7 -409 0
-133 -7 409 0
-408 406 0
-409 406 0
408 409 -406 0
8 134 -411 0
-8 134 411 0
8 -134 411 0
-8 -134 -411 0
411 406 -260 0
-411 406 260 0
411 -406 260 0
-411 -406 -260 0
406 -412 0
411 -412 0
-406 -411 412 0
134 -413 0
8 -413 0
-134 -8 413 0
-412 410 0
-413 410 0
412 413 -410 0
9 135 -415 0
-9 135 415 0
9 -135 415 0
-9 -135 -415 0
415 410 -261 0
-415 410 261 0
415 -410 261 0
-415 -410 -261 0
410 -416 0
415 -416 0
-410 -415 416 0
135 -417 0
9 -417 0
-135 -9 417 0
-416 414 0
-417 414 0
416 417 -414 0
10 136 -419 0
-10 136 419 0
10 -136 419 0
-10 -136 -419 0
419 414 -262 0
-419 414 262 0
419 -414 262 0
-419 -414 -262 0
414 -420 0
419 -420 0
-414 -419 420 0
136 -421 0
10 -421 0
-136 -10 421 0
-420 418 0
-421 418 0
420 421 -418 0
11 137 -423 0
-11 137 423 0
11 -137 423 0
-11 -137 -423 0
423 418 -263 0
-423 418 263 0
423 -418 263 0
-423 -418 -263 0
418 -424 0
423 -424 0
-418 -423 424 0
137 -425 0
11 -425 0
-137 -11 425 0
-424 422 0
-425 422 0
424 425 -422 0
12 138 -427 0
-12 138 427 0
12 -138 427 0
-12 -138 -427 0
427 422 -264 0
-427 422 264 0
427 -422 264 0
-427 -422 -264 0
422 -428 0
427 -428 0
-422 -427 428 0
138 -429 0
12 -429 0
-138 -12 429 0
-428 426 0
-429 426 0
428 429 -426 0
13 139 -431 0
-13 139 431 0
13 -139 431 0
-13 -139 -431 0
431 426 -265 0
-431 426 265 0
431 -426 265 0
-431 -426 -265 0
426 -432 0
431 -432 0
-426 -431 432 0
139 -433 0
13 -433 0
-139 -13 433 0
-432 430 0
-433 430 0
432 433 -430 0
14 140 -435 0
-14 140 435 0
14 -140 435 0
-14 -140 -435 0
435 430 -266 0
-435 430 266 0
435 -430 266 0
-435 -430 -266 0
430 -436 0
435 -436 0
-430 -435 436 0
140 -437 0
14 -437 0
-140 -14 437 0
-436 434 0
-437 434 0
436 437 -434 0
15 141 -439 0
-15 141 439 0
15 -141 439 0
-15 -141 -439 0
439 434 -267 0
-439 434 267 0
439 -434 267 0
-439 -434 -267 0
434 -440 0
439 -440 0
-434 -439 440 0
141 -441 0
15 -441 0
-141 -15 441 0
-440 438 0
-441 438 0
440 441 -438 0
16 142 -443 0
-16 142 443 0
16 -142 443 0
-16 -142 -443 0
443 438 -268 0
-443 438 268 0
443 -438 268 0
-443 -438 -268 0
438 -444 0
443 -444 0
-438 -443 444 0
142 -445 0
16 -445 0
-142 -16 445 0
-444 442 0
-445 442 0
444 445 -442 0
17 143 -447 0
-17 143 447 0
17 -143 447 0
-17 -143 -447 0
447 442 -269 0
-447 442 269 0
447 -442 269 0
-447 -442 -269 0
442 -448 0
447 -448 0
-442 -447 448 0
143 -449 0
17 -449 0
-143 -17 449 0
-448 446 0
-449 446 0
448 449 -446 0
18 144 -451 0
-18 144 451 0
18 -144 451 0
-18 -144 -451 0
451 446 -270 0
-451 446 270 0
451 -446 270 0
-451 -446 -270 0
446 -452 0
451 -452 0
-446 -451 452 0
144 -453 0
18 -453 0
-144 -18 453 0
-452 450 0
-453 450 0
452 453 -450 0
19 145 -455 0
-19 145 455 0
19 -145 455 0
-19 -145 -455 0
455 450 -271 0
-455 450 271 0
455 -450 271 0
-455 -450 -271 0
450 -456 0
455 -456 0
-450 -455 456 0
145 -457 0
19 -457 0
-145 -19 457 0
-456 454 0
-457 454 0
456 457 -454 0
20 146 -459 0
-20 146 459 0
20 -146 459 0
-20 -146 -459 0
459 454 -272 0
-459 454 272 0
459 -454 272 0
-459 -454 -272 0
454 -460 0
459 -460 0
-454 -459 460 0
146 -461 0
20 -461 0
-146 -20 461 0
-460 458 0
-461 458 0
460 461 -458 0
21 147 -463 0
-21 147 463 0
21 -147 463 0
-21 -147 -463 0
463 458 -273 0
-463 458 273 0
463 -458 273 0
-463 -458 -273 0
458 -464 0
463 -464 0
-458 -463 464 0
147 -465 0
21 -465 0
-147 -21 465 0
-464 462 0
-465 462 0
464 465 -462 0
22 148 -467 0
-22 148 467 0
22 -148 467 0
-22 -148 -467 0
467 462 -274 0
-467 462 274 0
467 -462 274 0
-467 -462 -274 0
462 -468 0
467 -468 0
-462 -467 468 0
148 -469 0
22 -469 0
-148 -22 469 0
-468 466 0
-469 466 0
468 469 -466 0
23 149 -471 0
-23 149 471 0
23 -149 471 0
-23 -149 -471 0
471 466 -275 0
-471 466 275 0
471 -466 275 0
-471 -466 -275 0
466 -472 0
471 -472 0
-466 -471 472 0
149 -473 0
23 -473 0
-149 -23 473 0
-472 470 0
-473 470 0
472 473 -470 0
24 150 -475 0
-24 150 475 0
24 -150 475 0
-24 -150 -475 0
475 470 -276 0
-475 470 276 0
475 -470 276 0
-475 -470 -276 0
470 -476 0
475 -476 0
-470 -475 476 0
150 -477 0
24 -477 0
-150 -24 477 0
-476 474 0
-477 474 0
476 477 -474 0
25 151 -479 0
-25 151 479 0
25 -151 479 0
-25 -151 -479 0
479 474 -277 0
-479 474 277 0
479 -474 277 0
-479 -474 -277 0
474 -480 0
479 -480 0
-474 -479 480 0
151 -481 0
25 -481 0
-151 -25 481 0
-480 478 0
-481 478 0
480 481 -478 0
26 152 -483 0
-26 152 483 0
26 -152 483 0
-26 -152 -483 0
483 478 -278 0
-483 478 278 0
483 -478 278 0
-483 -478 -278 0
478 -484 0
483 -484 0
-478 -483 484 0
152 -485 0
26 -485 0
-152 -26 485 0
-484 482 0
-485 482 0
484 485 -482 0
27 153 -487 0
-27 153 487 0
27 -153 487 0
-27 -153 -487 0
487 482 -279 0
-487 482 279 0
487 -482 279 0
-487 -482 -279 0
482 -488 0
487 -488 0
-482 -487 488 0
153 -489 0
27 -489 0
-153 -27 489 0
-488 486 0
-489 486 0
488 489 -486 0
28 154 -491 0
-28 154 491 0
28 -154 491 0
-28 -154 -491 0
491 486 -280 0
-491 486 280 0
491 -486 280 0
-491 -486 -280 0
486 -492 0
491 -492 0
-486 -491 492 0
154 -493 0
28 -493 0
-154 -28 493 0
-492 490 0
-493 490 0
492 493 -490 0
29 155 -495 0
-29 155 495 0
29 -155 495 0
-29 -155 -495 0
495 490 -281 0
-495 490 281 0
495 -490 281 0
-495 -490 -281 0
490 -496 0
495 -496 0
-490 -495 496 0
155 -497 0
29 -497 0
-155 -29 497 0
-496 494 0
-497 494 0
496 497 -494 0
30 156 -499 0
-30 156 499 0
30 -156 499 0
-30 -156 -499 0
499 494 -282 0
-499 494 282 0
499 -494 282 0
-499 -494 -282 0
494 -500 0
499 -500 0
-494 -499 500 0
156 -501 0
30 -501 0
-156 -30 501 0
-500 498 0
-501 498 0
500 501 -498 0
31 157 -503 0
-31 157 503 0
31 -157 503 0
-31 -157 -503 0
503 498 -283 0
-503 498 283 0
503 -498 283 0
-503 -498 -283 0
498 -504 0
503 -504 0
-498 -503 504 0
157 -505 0
31 -505 0
-157 -31 505 0
-504 502 0
-505 502 0
504 505 -502 0
32 158 -507 0
-32 158 507 0
32 -158 507 0
-32 -158 -507 0
507 502 -284 0
-507 502 284 0
507 -502 284 0
-507 -502 -284 0
502 -508 0
507 -508 0
-502 -507 508 0
158 -509 0
32 -509 0
-158 -32 509 0
-508 506 0
-509 506 0
508 509 -506 0
33 159 -511 0
-33 159 511 0
33 -159 511 0
-33 -159 -511 0
511 506 -285 0
-511 506 285 0
511 -506 285 0
-511 -506 -285 0
506 -512 0
511 -512 0
-506 -511 512 0
159 -513 0
33 -513 0
-159 -33 513 0
-512 510 0
-513 510 0
512 513 -510 0
34 160 -515 0
-34 160 515 0
34 -160 515 0
-34 -160 -515 0
515 510 -286 0
-515 510 286 0
515 -510 286 0
-515 -510 -286 0
510 -516 0
515 -516 0
-510 -515 516 0
160 -517 0
34 -517 0
-160 -34 517 0
-516 514 0
-517 514 0
516 517 -514 0
35 161 -519 0
-35 161 519 0
35 -161 519 0
-35 -161 -519 0
519 514 -287 0
-519 514 287 0
519 -514 287 0
-519 -514 -287 0
514 -520 0
519 -520 0
-514 -519 520 0
161 -521 0
35 -521 0
-161 -35 521 0
-520 518 0
-521 518 0
520 521 -518 0
36 162 -523 0
-36 162 523 0
36 -162 523 0
-36 -162 -523 0
523 518 -288 0
-523 518 288 0
523 -518 288 0
-523 -518 -288 0
518 -524 0
523 -524 0
-518 -523 524 0
162 -525 0
36 -525 0
-162 -36 525 0
-524 522 0
-525 522 0
524 525 -522 0
37 163 -527 0
-37 163 527 0
37 -163 527 0
-37 -163 -527 0
527 522 -289 0
-527 522 289 0
527 -522 289 0
-527 -522 -289 0
522 -528 0
527 -528 0
-522 -527 528 0
163 -529 0
37 -529 0
-163 -37 529 0
-528 526 0
-529 526 0
528 529 -526 0
38 164 -531 0
-38 164 531 0
38 -164 531 0
-38 -164 -531 0
531 526 -290 0
-531 526 290 0
531 -526 290 0
-531 -526 -290 0
526 -532 0
531 -532 0
-526 -531 532 0
164 -533 0
38 -533 0
-164 -38 533 0
-532 530 0
-533 530 0
532 533 -530 0
39 165 -535 0
-39 165 535 0
39 -165 535 0
-39 -165 -535 0
535 530 -291 0
-535 530 291 0
535 -530 291 0
-535 -530 -291 0
530 -536 0
535 -536 0
-530 -535 536 0
165 -537 0
39 -537 0
-165 -39 537 0
-536 534 0
-537 534 0
536 537 -534 0
40 166 -539 0
-40 166 539 0
40 -166 539 0
-40 -166 -539 0
539 534 -292 0
-539 534 292 0
539 -534 292 0
-539 -534 -292 0
534 -540 0
539 -540 0
-534 -539 540 0
166 -541 0
40 -541 0
-166 -40 541 0
-540 538 0
-541 538 0
540 541 -538 0
41 167 -543 0
-41 167 543 0
41 -167 543 0
-41 -167 -543 0
543 538 -293 0
-543 538 293 0
543 -538 293 0
-543 -538 -293 0
538 -544 0
543 -544 0
-538 -543 544 0
167 -545 0
41 -545 0
-167 -41 545 0
-544 542 0
-545 542 0
544 545 -542 0
42 168 -547 0
-42 168 547 0
42 -168 547 0
-42 -168 -547 0
547 542 -294 0
-547 542 294 0
547 -542 294 0
-547 -542 -294 0
542 -548 0
547 -548 0
-542 -547 548 0
168 -549 0
42 -549 0
-168 -42 549 0
-548 546 0
-549 546 0
548 549 -546 0
43 169 -551 0
-43 169 551 0
43 -169 551 0
-43 -169 -551 0
551 546 -295 0
-551 546 295 0
551 -546 295 0
-551 -546 -295 0
546 -552 0
551 -552 0
-546 -551 552 0
169 -553 0
43 -553 0
-169 -43 553 0
-552 550 0
-553 550 0
552 553 -550 0
44 170 -555 0
-44 170 555 0
44 -170 555 0
-44 -170 -555 0
555 550 -296 0
-555 550 296 0
555 -550 296 0
-555 -550 -296 0
550 -556 0
555 -556 0
-550 -555 556 0
170 -557 0
44 -557 0
-170 -44 557 0
-556 554 0
-557 554 0
556 557 -554 0
45 171 -559 0
-45 171 559 0
45 -171 559 0
-45 -171 -559 0
559 554 -297 0
-559 554 297 0
559 -554 297 0
-559 -554 -297 0
554 -560 0
559 -560 0
-554 -559 560 0
171 -561 0
45 -561 0
-171 -45 561 0
-560 558 0
-561 558 0
560 561 -558 0
46 172 -563 0
-46 172 563 0
46 -172 563 0
-46 -172 -563 0
563 558 -298 0
-563 558 298 0
563 -558 298 0
-563 -558 -298 0
558 -564 0
563 -564 0
-558 -563 564 0
172 -565 0
46 -565 0
-172 -46 565 0
-564 562 0
-565 562 0
564 565 -562 0
47 173 -567 0
-47 173 567 0
47 -173 567 0
-47 -173 -567 0
567 562 -299 0
-567 562 299 0
567 -562 299 0
-567 -562 -299 0
562 -568 0
567 -568 0
-562 -567 568 0
173 -569 0
47 -569 0
-173 -47 569 0
-568 566 0
-569 566 0
568 569 -566 0
48 174 -571 0
-48 174 571 0
48 -174 571 0
-48 -174 -571 0
571 566 -300 0
-571 566 300 0
571 -566 300 0
-571 -566 -300 0
566 -572 0
571 -572 0
-566 -571 572 0
174 -573 0
48 -573 0
-174 -48 573 0
-572 570 0
-573 570 0
572 573 -570 0
49 175 -575 0
-49 175 575 0
49 -175 575 0
-49 -175 -575 0
575 570 -301 0
-575 570 301 0
575 -570 301 0
-575 -570 -301 0
570 -576 0
575 -576 0
-570 -575 576 0
175 -577 0
49 -577 0
-175 -49 577 0
-576 574 0
-577 574 0
576 577 -574 0
50 176 -579 0
-50 176 579 0
50 -176 579 0
-50 -176 -579 0
579 574 -302 0
-579 574 302 0
579 -574 302 0
-579 -574 -302 0
574 -580 0
579 -580 0
-574 -579 580 0
176 -581 0
50 -581 0
-176 -50 581 0
-580 578 0
-581 578 0
580 581 -578 0
51 177 -583 0
-51 177 583 0
51 -177 583 0
-51 -177 -583 0
583 578 -303 0
-583 578 303 0
583 -578 303 0
-583 -578 -303 0
578 -584 0
583 -584 0
-578 -583 584 0
177 -585 0
51 -585 0
-177 -51 585 0
-584 582 0
-585 582 0
584 585 -582 0
52 178 -587 0
-52 178 587 0
52 -178 587 0
-52 -178 -587 0
587 582 -304 0
-587 582 304 0
587 -582 304 0
-587 -582 -304 0
582 -588 0
587 -588 0
-582 -587 588 0
178 -589 0
52 -589 0
-178 -52 589 0
-588 586 0
-589 586 0
588 589 -586 0
53 179 -591 0
-53 179 591 0
53 -179 591 0
-53 -179 -591 0
591 586 -305 0
-591 586 305 0
591 -586 305 0
-591 -586 -305 0
586 -592 0
591 -592 0
-586 -591 592 0
179 -593 0
53 -593 0
-179 -53 593 0
-592 590 0
-593 590 0
592 593 -590 0
54 180 -595 0
-54 180 595 0
54 -180 595 0
-54 -180 -595 0
595 590 -306 0
-595 590 306 0
595 -590 306 0
-595 -590 -306 0
590 -596 0
595 -596 0
-590 -595 596 0
180 -597 0
54 -597 0
-180 -54 597 0
-596 594 0
-597 594 0
596 597 -594 0
55 181 -599 0
-55 181 599 0
55 -181 599 0
-55 -181 -599 0
599 594 -307 0
-599 594 307 0
599 -594 307 0
-599 -594 -307 0
594 -600 0
599 -600 0
-594 -599 600 0
181 -601 0
55 -601 0
-181 -55 601 0
-600 598 0
-601 598 0
600 601 -598 0
56 182 -603 0
-56 182 603 0
56 -182 603 0
-56 -182 -603 0
603 598 -308 0
-603 598 308 0
603 -598 308 0
-603 -598 -308 0
598 -604 0
603 -604 0
-598 -603 604 0
182 -605 0
56 -605 0
-182 -56 605 0
-604 602 0
-605 602 0
604 605 -602 0
57 183 -607 0
-57 183 607 0
57 -183 607 0
-57 -183 -607 0
607 602 -309 0
-607 602 309 0
607 -602 309 0
-607 -602 -309 0
602 -608 0
607 -608 0
-602 -607 608 0
183 -609 0
57 -609 0
-183 -57 609 0
-608 606 0
-609 606 0
608 609 -606 0
58 184 -611 0
-58 184 611 0
58 -184 611 0
-58 -184 -611 0
611 606 -310 0
-611 606 310 0
611 -606 310 0
-611 -606 -310 0
606 -612 0
611 -612 0
-606 -611 612 0
184 -613 0
58 -613 0
-184 -58 613 0
-612 610 0
-613 610 0
612 613 -610 0
59 185 -615 0
-59 185 615 0
59 -185 615 0
-59 -185 -615 0
615 610 -311 0
-615 610 311 0
615 -610 311 0
-615 -610 -311 0
610 -616 0
615 -616 0
-610 -615 616 0
185 -617 0
59 -617 0
-185 -59 617 0
-616 614 0
-617 614 0
616 617 -614 0
60 186 -619 0
-60 186 619 0
60 -186 619 0
-60 -186 -619 0
619 614 -312 0
-619 614 312 0
619 -614 312 0
-619 -614 -312 0
614 -620 0
619 -620 0
-614 -619 620 0
186 -621 0
60 -621 0
-186 -60 621 0
-620 618 0
-621 618 0
620 621 -618 0
61 187 -623 0
-61 187 623 0
61 -187 623 0
-61 -187 -623 0
623 618 -313 0
-623 618 313 0
623 -618 313 0
-623 -618 -313 0
618 -624 0
623 -624 0
-618 -623 624 0
187 -625 0
61 -625 0
-187 -61 625 0
-624 622 0
-625 622 0
624 625 -622 0
62 188 -627 0
-62 188 627 0
62 -188 627 0
-62 -188 -627 0
627 622 -314 0
-627 622 314 0
627 -622 314 0
-627 -622 -314 0
622 -628 0
627 -628 0
-622 -627 628 0
188 -629 0
62 -629 0
-188 -62 629 0
-628 626 0
-629 626 0
628 629 -626 0
63 189 -631 0
-63 189 631 0
63 -189 631 0
-63 -189 -631 0
631 626 -315 0
-631 626 315 0
631 -626 315 0
-631 -626 -315 0
626 -632 0
631 -632 0
-626 -631 632 0
189 -633 0
63 -633 0
-189 -63 633 0
-632 630 0
-633 630 0
632 633 -630 0
64 190 -635 0
-64 190 635 0
64 -190 635 0
-64 -190 -635 0
635 630 -316 0
-635 630 316 0
635 -630 316 0
-635 -630 -316 0
630 -636 0
635 -636 0
-630 -635 636 0
190 -637 0
64 -637 0
-190 -64 637 0
-636 634 0
-637 634 0
636 637 -634 0
65 191 -639 0
-65 191 639 0
65 -191 639 0
-65 -191 -639 0
639 634 -317 0
-639 634 317 0
639 -634 317 0
-639 -634 -317 0
634 -640 0
639 -640 0
-634 -639 640 0
191 -641 0
65 -641 0
-191 -65 641 0
-640 638 0
-641 638 0
640 641 -638 0
66 192 -643 0
-66 192 643 0
66 -192 643 0
-66 -192 -643 0
643 638 -318 0
-643 638 318 0
643 -638 318 0
-643 -638 -318 0
638 -644 0
643 -644 0
-638 -643 644 0
192 -645 0
66 -645 0
-192 -66 645 0
-644 642 0
-645 642 0
644 645 -642 0
67 193 -647 0
-67 193 647 0
67 -193 647 0
-67 -193 -647 0
647 642 -319 0
-647 642 319 0
647 -642 319 0
-647 -642 -319 0
642 -648 0
647 -648 0
-642 -647 648 0
193 -649 0
67 -649 0
-193 -67 649 0
-648 646 0
-649 646 0
648 649 -646 0
68 194 -651 0
-68 194 651 0
68 -194 651 0
-68 -194 -651 0
651 646 -320 0
-651 646 320 0
651 -646 320 0
-651 -646 -320 0
646 -652 0
651 -652 0
-646 -651 652 0
194 -653 0
68 -653 0
-194 -68 653 0
-652 650 0
-653 650 0
652 653 -650 0
69 195 -655 0
-69 195 655 0
69 -195 655 0
-69 -195 -655 0
655 650 -321 0
-655 650 321 0
655 -650 321 0
-655 -650 -321 0
650 -656 0
655 -656 0
-650 -655 656 0
195 -657 0
69 -657 0
-195 -69 657 0
-656 654 0
-657 654 0
656 657 -654 0
70 196 -659 0
-70 196 659 0
70 -196 659 0
-70 -196 -659 0
659 654 -322 0
-659 654 322 0
659 -654 322 0
-659 -654 -322 0
654 -660 0
659 -660 0
-654 -659 660 0
196 -661 0
70 -661 0
-196 -70 661 0
-660 658 0
-661 658 0
660 661 -658 0
71 197 -663 0
-71 197 663 0
71 -197 663 0
-71 -197 -663 0
663 658 -323 0
-663 658 323 0
663 -658 323 0
-663 -658 -323 0
658 -664 0
663 -664 0
-658 -663 664 0
197 -665 0
71 -665 0
-197 -71 665 0
-664 662 0
-665 662 0
664 665 -662 0
72 198 -667 0
-72 198 667 0
72 -198 667 0
-72 -198 -667 0
667 662 -324 0
-667 662 324 0
667 -662 324 0
-667 -662 -324 0
662 -668 0
667 -668 0
-662 -667 668 0
198 -669 0
72 -669 0
-198 -72 669 0
-668 666 0
-669 666 0
668 669 -666 0
73 199 -671 0
-73 199 671 0
73 -199 671 0
-73 -199 -671 0
671 666 -325 0
-671 666 325 0
671 -666 325 0
-671 -666 -325 0
666 -672 0
671 -672 0
-666 -671 672 0
199 -673 0
73 -673 0
-199 -73 673 0
-672 670 0
-673 670 0
672 673 -670 0
74 200 -675 0
-74 200 675 0
74 -200 675 0
-74 -200 -675 0
675 670 -326 0
-675 670 326 0
675 -670 326 0
-675 -670 -326 0
670 -676 0
675 -676 0
-670 -675 676 0
200 -677 0
74 -677 0
-200 -74 677 0
-676 674 0
-677 674 0
676 677 -674 0
75 201 -679 0
-75 201 679 0
75 -201 679 0
-75 -201 -679 0
679 674 -327 0
-679 674 327 0
679 -674 327 0
-679 -674 -327 0
674 -680 0
679 -680 0
-674 -679 680 0
201 -681 0
75 -681 0
-201 -75 681 0
-680 678 0
-681 678 0
680 681 -678 0
76 202 -683 0
-76 202 683 0
76 -202 683 0
-76 -202 -683 0
683 678 -328 0
-683 678 328 0
683 -678 328 0
-683 -678 -328 0
678 -684 0
683 -684 0
-678 -683 684 0
202 -685 0
76 -685 0
-202 -76 685 0
-684 682 0
-685 682 0
684 685 -682 0
77 203 -687 0
-77 203 687 0
77 -203 687 0
-77 -203 -687 0
687 682 -329 0
-687 682 329 0
687 -682 329 0
-687 -682 -329 0
682 -688 0
687 -688 0
-682 -687 688 0
203 -689 0
77 -689 0
-203 -77 689 0
-688 686 0
-689 686 0
688 689 -686 0
78 204 -691 0
-78 204 691 0
78 -204 691 0
-78 -204 -691 0
691 686 -330 0
-691 686 330 0
691 -686 330 0
-691 -686 -330 0
686 -692 0
691 -692 0
-686 -691 692 0
204 -693 0
78 -693 0
-204 -78 693 0
-692 690 0
-693 690 0
692 693 -690 0
79 205 -695 0
-79 205 695 0
79 -205 695 0
-79 -205 -695 0
695 690 -331 0
-695 690 331 0
695 -690 331 0
-695 -690 -331 0
690 -696 0
695 -696 0
-690 -695 696 0
205 -697 0
79 -697 0
-205 -79 697 0
-696 694 0
-697 694 0
696 697 -694 0
80 206 -699 0
-80 206 699 0
80 -206 699 0
-80 -206 -699 0
699 694 -332 0
-699 694 332 0
699 -694 332 0
-699 -694 -332 0
694 -700 0
699 -700 0
-694 -699 700 0
206 -701 0
80 -701 0
-206 -80 701 0
-700 698 0
-701 698 0
700 701 -698 0
81 207 -703 0
-81 207 703 0
81 -207 703 0
-81 -207 -703 0
703 698 -333 0
-703 698 333 0
703 -698 333 0
-703 -698 -333 0
698 -704 0
703 -704 0
-698 -703 704 0
207 -705 0
81 -705 0
-207 -81 705 0
-704 702 0
-705 702 0
704 705 -702 0
82 208 -707 0
-82 208 707 0
82 -208 707 0
-82 -208 -707 0
707 702 -334 0
-707 702 334 0
707 -702 334 0
-707 -702 -334 0
702 -708 0
707 -708 0
-702 -707 708 0
208 -709 0
82 -709 0
-208 -82 709 0
-708 706 0
-709 706 0
708 709 -706 0
83 209 -711 0
-83 209 711 0
83 -209 711 0
-83 -209 -711 0
711 706 -335 0
-711 706 335 0
711 -706 335 0
-711 -706 -335 0
706 -712 0
711 -712 0
-706 -711 712 0
209 -713 0
83 -713 0
-209 -83 713 0
-712 710 0
-713 710 0
712 713 -710 0
84 210 -715 0
-84 210 715 0
84 -210 715 0
-84 -210 -715 0
715 710 -336 0
-715 710 336 0
715 -710 336 0
-715 -710 -336 0
710 -716 0
715 -716 0
-710 -715 716 0
210 -717 0
84 -717 0
-210 -84 717 0
-716 714 0
-717 714 0
716 717 -714 0
85 211 -719 0
-85 211 719 0
85 -211 719 0
-85 -211 -719 0
719 714 -337 0
-719 714 337 0
719 -714 337 0
-719 -714 -337 0
714 -720 0
719 -720 0
-714 -719 720 0
211 -721 0
85 -721 0
-211 -85 721 0
-720 718 0
-721 718 0
720 721 -718 0
86 212 -723 0
-86 212 723 0
86 -212 723 0
-86 -212 -723 0
723 718 -338 0
-723 718 338 0
723 -718 338 0
-723 -718 -338 0
718 -724 0
723 -724 0
-718 -723 724 0
212 -725 0
86 -725 0
-212 -86 725 0
-724 722 0
-725 722 0
724 725 -722 0
87 213 -727 0
-87 213 727 0
87 -213 727 0
-87 -213 -727 0
727 722 -339 0
-727 722 339 0
727 -722 339 0
-727 -722 -339 0
722 -728 0
727 -728 0
-722 -727 728 0
213 -729 0
87 -729 0
-213 -87 729 0
-728 726 0
-729 726 0
728 729 -726 0
88 214 -731 0
-88 214 731 0
88 -214 731 0
-88 -214 -731 0
731 726 -340 0
-731 726 340 0
731 -726 340 0
-731 -726 -340 0
726 -732 0
731 -732 0
-726 -731 732 0
214 -733 0
88 -733 0
-214 -88 733 0
-732 730 0
-733 730 0
732 733 -730 0
89 215 -735 0
-89 215 735 0
89 -215 735 0
-89 -215 -735 0
735 730 -341 0
-735 730 341 0
735 -730 341 0
-735 -730 -341 0
730 -736 0
735 -736 0
-730 -735 736 0
215 -737 0
89 -737 0
-215 -89 737 0
-736 734 0
-737 734 0
736 737 -734 0
90 216 -739 0
-90 216 739 0
90 -216 739 0
-90 -216 -739 0
739 734 -342 0
-739 734 342 0
739 -734 342 0
-739 -734 -342 0
734 -740 0
739 -740 0
-734 -739 740 0
216 -741 0
90 -741 0
-216 -90 741 0
-740 738 0
-741 738 0
740 741 -738 0
91 217 -743 0
-91 217 743 0
91 -217 743 0
-91 -217 -743 0
743 738 -343 0
-743 738 343 0
743 -738 343 0
-743 -738 -343 0
738 -744 0
743 -744 0
-738 -743 744 0
217 -745 0
91 -745 0
-217 -91 745 0
-744 742 0
-745 742 0
744 745 -742 0
92 218 -747 0
-92 218 747 0
92 -218 747 0
-92 -218 -747 0
747 742 -344 0
-747 742 344 0
747 -742 344 0
-747 -742 -344 0
742 -748 0
747 -748 0
-742 -747 748 0
218 -749 0
92 -749 0
-218 -92 749 0
-748 746 0
-749 746 0
748 749 -746 0
93 219 -751 0
-93 219 751 0
93 -219 751 0
-93 -219 -751 0
751 746 -345 0
-751 746 345 0
751 -746 345 0
-751 -746 -345 0
746 -752 0
751 -752 0
-746 -751 752 0
219 -753 0
93 -753 0
-219 -93 753 0
-752 750 0
-753 750 0
752 753 -750 0
94 220 -755 0
-94 220 755 0
94 -220 755 0
-94 -220 -755 0
755 750 -346 0
-755 750 346 0
755 -750 346 0
-755 -750 -346 0
750 -756 0
755 -756 0
-750 -755 756 0
220 -757 0
94 -757 0
-220 -94 757 0
-756 754 0
-757 754 0
756 757 -754 0
95 221 -759 0
-95 221 759 0
95 -221 759 0
-95 -221 -759 0
759 754 -347 0
-759 754 347 0
759 -754 347 0
-759 -754 -347 0
754 -760 0
759 -760 0
-754 -759 760 0
221 -761 0
95 -761 0
-221 -95 761 0
-760 758 0
-761 758 0
760 761 -758 0
96 222 -763 0
-96 222 763 0
96 -222 763 0
-96 -222 -763 0
763 758 -348 0
-763 758 348 0
763 -758 348 0
-763 -758 -348 0
758 -764 0
763 -764 0
-758 -763 764 0
222 -765 0
96 -765 0
-222 -96 765 0
-764 762 0
-765 762 0
764 765 -762 0
97 223 -767 0
-97 223 767 0
97 -223 767 0
-97 -223 -767 0
767 762 -349 0
-767 762 349 0
767 -762 349 0
-767 -762 -349 0
762 -768 0
767 -768 0
-762 -767 768 0
223 -769 0
97 -769 0
-223 -97 769 0
-768 766 0
-769 766 0
768 769 -766 0
98 224 -771 0
-98 224 771 0
98 -224 771 0
-98 -224 -771 0
771 766 -350 0
-771 766 350 0
771 -766 350 0
-771 -766 -350 0
766 -772 0
771 -772 0
-766 -771 772 0
224 -773 0
98 -773 0
-224 -98 773 0
-772 770 0
-773 770 0
772 773 -770 0
99 225 -775 0
-99 225 775 0
99 -225 775 0
-99 -225 -775 0
775 770 -351 0
-775 770 351 0
775 -770 351 0
-775 -770 -351 0
770 -776 0
775 -776 0
-770 -775 776 0
225 -777 0
99 -777 0
-225 -99 777 0
-776 774 0
-777 774 0
776 777 -774 0
100 226 -779 0
-100 226 779 0
100 -226 779 0
-100 -226 -779 0
779 774 -352 0
-779 774 352 0
779 -774 352 0
-779 -774 -352 0
774 -780 0
779 -780 0
-774 -779 780 0
226 -781 0
100 -781 0
-226 -100 781 0
-780 778 0
-781 778 0
780 781 -778 0
101 227 -783 0
-101 227 783 0
101 -227 783 0
-101 -227 -783 0
783 778 -353 0
-783 778 353 0
783 -778 353 0
-783 -778 -353 0
778 -784 0
783 -784 0
-778 -783 784 0
227 -785 0
101 -785 0
-227 -101 785 0
-784 782 0
-785 782 0
784 785 -782 0
102 228 -787 0
-102 228 787 0
102 -228 787 0
-102 -228 -787 0
787 782 -354 0
-787 782 354 0
787 -782 354 0
-787 -782 -354 0
782 -788 0
787 -788 0
-782 -787 788 0
228 -789 0
102 -789 0
-228 -102 789 0
-788 786 0
-789 786 0
788 789 -786 0
103 229 -791 0
-103 229 791 0
103 -229 791 0
-103 -229 -791 0
791 786 -355 0
-791 786 355 0
791 -786 355 0
-791 -786 -355 0
786 -792 0
791 -792 0
-786 -791 792 0
229 -793 0
103 -793 0
-229 -103 793 0
-792 790 0
-793 790 0
792 793 -790 0
104 230 -795 0
-104 230 795 0
104 -230 795 0
-104 -230 -795 0
795 790 -356 0
-795 790 356 0
795 -790 356 0
-795 -790 -356 0
790 -796 0
795 -796 0
-790 -795 796 0
230 -797 0
104 -797 0
-230 -104 797 0
-796 794 0
-797 794 0
796 797 -794 0
105 231 -799 0
-105 231 799 0
105 -231 799 0
-105 -231 -799 0
799 794 -357 0
-799 794 357 0
799 -794 357 0
-799 -794 -357 0
794 -800 0
799 -800 0
-794 -799 800 0
231 -801 0
105 -801 0
-231 -105 801 0
-800 798 0
-801 798 0
800 801 -798 0
106 232 -803 0
-106 232 803 0
106 -232 803 0
-106 -232 -803 0
803 798 -358 0
-803 798 358 0
803 -798 358 0
-803 -798 -358 0
798 -804 0
803 -804 0
-798 -803 804 0
232 -805 0
106 -805 0
-232 -106 805 0
-804 802 0
-805 802 0
804 805 -802 0
107 233 -807 0
-107 233 807 0
107 -233 807 0
-107 -233 -807 0
807 802 -359 0
-807 802 359 0
807 -802 359 0
-807 -802 -359 0
802 -808 0
807 -808 0
-802 -807 808 0
233 -809 0
107 -809 0
-233 -107 809 0
-808 806 0
-809 806 0
808 809 -806 0
108 234 -811 0
-108 234 811 0
108 -234 811 0
-108 -234 -811 0
811 806 -360 0
-811 806 360 0
811 -806 360 0
-811 -806 -360 0
806 -812 0
811 -812 0
-806 -811 812 0
234 -813 0
108 -813 0
-234 -108 813 0
-812 810 0
-813 810 0
812 813 -810 0
109 235 -815 0
-109 235 815 0
109 -235 815 0
-109 -235 -815 0
815 810 -361 0
-815 810 361 0
815 -810 361 0
-815 -810 -361 0
810 -816 0
815 -816 0
-810 -815 816 0
235 -817 0
109 -817 0
-235 -109 817 0
-816 814 0
-817 814 0
816 817 -814 0
110 236 -819 0
-110 236 819 0
110 -236 819 0
-110 -236 -819 0
819 814 -362 0
-819 814 362 0
819 -814 362 0
-819 -814 -362 0
814 -820 0
819 -820 0
-814 -819 820 0
236 -821 0
110 -821 0
-236 -110 821 0
-820 818 0
-821 818 0
820 821 -818 0
111 237 -823 0
-111 237 823 0
111 -237 823 0
-111 -237 -823 0
823 818 -363 0
-823 818 363 0
823 -818 363 0
-823 -818 -363 0
818 -824 0
823 -824 0
-818 -823 824 0
237 -825 0
111 -825 0
-237 -111 825 0
-824 822 0
-825 822 0
824 825 -822 0
112 238 -827 0
-112 238 827 0
112 -238 827 0
-112 -238 -827 0
827 822 -364 0
-827 822 364 0
827 -822 364 0
-827 -822 -364 0
822 -828 0
827 -828 0
-822 -827 828 0
238 -829 0
112 -829 0
-238 -112 829 0
-828 826 0
-829 826 0
828 829 -826 0
113 239 -831 0
-113 239 831 0
113 -239 831 0
-113 -239 -831 0
831 826 -365 0
-831 826 365 0
831 -826 365 0
-831 -826 -365 0
826 -832 0
831 -832 0
-826 -831 832 0
239 -833 0
113 -833 0
-239 -113 833 0
-832 830 0
-833 830 0
832 833 -830 0
114 240 -835 0
-114 240 835 0
114 -240 835 0
-114 -240 -835 0
835 830 -366 0
-835 830 366 0
835 -830 366 0
-835 -830 -366 0
830 -836 0
835 -836 0
-830 -835 836 0
240 -837 0
114 -837 0
-240 -114 837 0
-836 834 0
-837 834 0
836 837 -834 0
115 241 -839 0
-115 241 839 0
115 -241 839 0
-115 -241 -839 0
839 834 -367 0
-839 834 367 0
839 -834 367 0
-839 -834 -367 0
834 -840 0
839 -840 0
-834 -839 840 0
241 -841 0
115 -841 0
-241 -115 841 0
-840 838 0
-841 838 0
840 841 -838 0
116 242 -843 0
-116 242 843 0
116 -242 843 0
-116 -242 -843 0
843 838 -368 0
-843 838 368 0
843 -838 368 0
-843 -838 -368 0
838 -844 0
843 -844 0
-838 -843 844 0
242 -845 0
116 -845 0
-242 -116 845 0
-844 842 0
-845 842 0
844 845 -842 0
117 243 -847 0
-117 243 847 0
117 -243 847 0
-117 -243 -847 0
847 842 -369 0
-847 842 369 0
847 -842 369 0
-847 -842 -369 0
842 -848 0
847 -848 0
-842 -847 848 0
243 -849 0
117 -849 0
-243 -117 849 0
-848 846 0
-849 846 0
848 849 -846 0
118 244 -851 0
-118 244 851 0
118 -244 851 0
-118 -244 -851 0
851 846 -370 0
-851 846 370 0
851 -846 370 0
-851 -846 -370 0
846 -852 0
851 -852 0
-846 -851 852 0
244 -853 0
118 -853 0
-244 -118 853 0
-852 850 0
-853 850 0
852 853 -850 0
119 245 -855 0
-119 245 855 0
119 -245 855 0
-119 -245 -855 0
855 850 -371 0
-855 850 371 0
855 -850 371 0
-855 -850 -371 0
850 -856 0
855 -856 0
-850 -855 856 0
245 -857 0
119 -857 0
-245 -119 857 0
-856 854 0
-857 854 0
856 857 -854 0
120 246 -859 0
-120 246 859 0
120 -246 859 0
-120 -246 -859 0
859 854 -372 0
-859 854 372 0
859 -854 372 0
-859 -854 -372 0
854 -860 0
859 -860 0
-854 -859 860 0
246 -861 0
120 -861 0
-246 -120 861 0
-860 858 0
-861 858 0
860 861 -858 0
121 247 -863 0
-121 247 863 0
121 -247 863 0
-121 -247 -863 0
863 858 -373 0
-863 858 373 0
863 -858 373 0
-863 -858 -373 0
858 -864 0
863 -864 0
-858 -863 864 0
247 -865 0
121 -865 0
-247 -121 865 0
-864 862 0
-865 862 0
864 865 -862 0
122 248 -867 0
-122 248 867 0
122 -248 867 0
-122 -248 -867 0
867 862 -374 0
-867 862 374 0
867 -862 374 0
-867 -862 -374 0
862 -868 0
867 -868 0
-862 -867 868 0
248 -869 0
122 -869 0
-248 -122 869 0
-868 866 0
-869 866 0
868 869 -866 0
123 249 -871 0
-123 249 871 0
123 -249 871 0
-123 -249 -871 0
871 866 -375 0
-871 866 375 0
871 -866 375 0
-871 -866 -375 0
866 -872 0
871 -872 0
-866 -871 872 0
249 -873 0
123 -873 0
-249 -123 873 0
-872 870 0
-873 870 0
872 873 -870 0
124 250 -875 0
-124 250 875 0
124 -250 875 0
-124 -250 -875 0
875 870 -376 0
-875 870 376 0
875 -870 376 0
-875 -870 -376 0
870 -876 0
875 -876 0
-870 -875 876 0
250 -877 0
124 -877 0
-250 -124 877 0
-876 874 0
-877 874 0
876 877 -874 0
125 251 -879 0
-125 251 879 0
125 -251 879 0
-125 -251 -879 0
879 874 -377 0
-879 874 377 0
879 -874 377 0
-879 -874 -377 0
874 -880 0
879 -880 0
-874 -879 880 0
251 -881 0
125 -881 0
-251 -125 881 0
-880 878 0
-881 878 0
880 881 -878 0
126 252 -882 0
-126 252 882 0
126 -252 882 0
-126 -252 -882 0
882 878 -378 0
-882 878 378 0
882 -878 378 0
-882 -878 -378 0
878 -883 0
882 -883 0
-878 -882 883 0
252 -884 0
126 -884 0
-252 -126 884 0
-883 379 0
-884 379 0
883 884 -379 0
